p tw 155 32551 2 
1 3 
1 4 
1 5 
1 6 
1 7 
1 8 
1 9 
1 10 
1 11 
1 12 
1 13 
1 14 
1 15 
1 16 
1 17 
1 18 
1 19 
1 20 
1 21 
1 22 
1 23 
1 24 
1 25 
1 26 
1 27 
1 28 
1 29 
1 31 
1 43 
1 55 
1 56 
1 57 
1 58 
1 59 
1 60 
1 61 
1 62 
1 63 
1 64 
1 65 
1 66 
2 3 
2 4 
2 5 
2 6 
2 7 
2 8 
2 9 
2 10 
2 11 
2 12 
2 13 
2 14 
2 15 
2 16 
2 26 
2 30 
2 31 
2 32 
2 33 
2 34 
2 35 
2 36 
2 37 
2 38 
2 39 
2 40 
2 41 
2 42 
2 52 
2 61 
2 76 
2 83 
2 87 
2 99 
2 110 
2 123 
2 129 
2 141 
2 148 
2 149 
2 150 
3 4 
3 5 
3 6 
3 7 
3 8 
3 9 
3 10 
3 11 
3 12 
3 13 
3 14 
3 15 
3 17 
3 28 
3 30 
3 37 
3 43 
3 44 
3 45 
3 46 
3 47 
3 48 
3 49 
3 50 
3 51 
3 52 
3 53 
3 54 
3 57 
3 75 
3 81 
3 100 
3 106 
3 111 
3 118 
3 128 
3 133 
3 137 
3 147 
3 148 
4 5 
4 6 
4 7 
4 8 
4 9 
4 10 
4 11 
4 12 
4 13 
4 14 
4 15 
4 18 
4 25 
4 32 
4 38 
4 44 
4 51 
4 55 
4 59 
4 67 
4 68 
4 69 
4 70 
4 71 
4 72 
4 73 
4 74 
4 75 
4 76 
4 77 
4 90 
4 109 
4 115 
4 125 
4 126 
4 127 
4 128 
4 129 
4 130 
5 6 
5 7 
5 8 
5 9 
5 10 
5 11 
5 12 
5 13 
5 14 
5 15 
5 19 
5 24 
5 33 
5 41 
5 45 
5 51 
5 56 
5 60 
5 67 
5 75 
5 77 
5 78 
5 79 
5 80 
5 81 
5 82 
5 83 
5 84 
5 85 
5 91 
5 101 
5 107 
5 119 
5 138 
5 140 
5 144 
5 145 
5 149 
6 7 
6 8 
6 9 
6 10 
6 11 
6 12 
6 13 
6 14 
6 15 
6 20 
6 22 
6 33 
6 42 
6 45 
6 46 
6 57 
6 64 
6 68 
6 74 
6 86 
6 87 
6 88 
6 89 
6 90 
6 91 
6 92 
6 93 
6 94 
6 96 
6 113 
6 118 
6 130 
6 134 
6 142 
6 144 
6 150 
6 155 
7 8 
7 9 
7 10 
7 11 
7 12 
7 13 
7 14 
7 15 
7 18 
7 21 
7 34 
7 42 
7 47 
7 48 
7 58 
7 66 
7 69 
7 77 
7 80 
7 86 
7 93 
7 95 
7 96 
7 97 
7 98 
7 99 
7 100 
7 101 
7 108 
7 122 
7 125 
7 139 
7 140 
7 148 
7 152 
7 154 
8 9 
8 10 
8 11 
8 12 
8 13 
8 14 
8 15 
8 21 
8 22 
8 35 
8 36 
8 47 
8 49 
8 59 
8 61 
8 70 
8 72 
8 78 
8 80 
8 87 
8 89 
8 102 
8 103 
8 104 
8 105 
8 106 
8 107 
8 108 
8 114 
8 115 
8 116 
8 117 
8 118 
8 119 
8 120 
9 10 
9 11 
9 12 
9 13 
9 14 
9 15 
9 23 
9 27 
9 36 
9 39 
9 44 
9 48 
9 60 
9 65 
9 71 
9 79 
9 81 
9 88 
9 92 
9 95 
9 98 
9 102 
9 104 
9 109 
9 110 
9 111 
9 112 
9 113 
9 117 
9 121 
9 127 
9 140 
9 141 
9 142 
10 11 
10 12 
10 13 
10 14 
10 15 
10 17 
10 24 
10 37 
10 41 
10 50 
10 62 
10 66 
10 68 
10 73 
10 79 
10 82 
10 90 
10 96 
10 97 
10 103 
10 104 
10 112 
10 114 
10 120 
10 121 
10 122 
10 123 
10 124 
10 126 
10 146 
10 147 
10 150 
10 151 
11 12 
11 13 
11 14 
11 15 
11 16 
11 25 
11 31 
11 52 
11 54 
11 63 
11 71 
11 73 
11 78 
11 85 
11 91 
11 94 
11 97 
11 101 
11 105 
11 111 
11 116 
11 120 
11 121 
11 125 
11 131 
11 132 
11 133 
11 134 
11 136 
11 141 
11 152 
11 155 
12 13 
12 14 
12 15 
12 26 
12 29 
12 32 
12 39 
12 49 
12 50 
12 63 
12 64 
12 67 
12 84 
12 86 
12 94 
12 100 
12 102 
12 108 
12 109 
12 116 
12 124 
12 126 
12 135 
12 136 
12 137 
12 138 
12 139 
12 142 
12 143 
12 149 
12 151 
13 14 
13 15 
13 23 
13 29 
13 38 
13 40 
13 46 
13 54 
13 55 
13 65 
13 69 
13 82 
13 83 
13 89 
13 99 
13 103 
13 105 
13 113 
13 117 
13 122 
13 128 
13 131 
13 132 
13 135 
13 138 
13 143 
13 144 
13 147 
13 153 
13 154 
14 15 
14 19 
14 20 
14 34 
14 40 
14 43 
14 53 
14 62 
14 70 
14 74 
14 84 
14 93 
14 98 
14 106 
14 110 
14 112 
14 114 
14 119 
14 127 
14 129 
14 132 
14 133 
14 136 
14 139 
14 143 
14 145 
14 146 
14 153 
14 155 
15 27 
15 28 
15 30 
15 35 
15 53 
15 56 
15 58 
15 72 
15 76 
15 85 
15 88 
15 92 
15 95 
15 107 
15 115 
15 123 
15 124 
15 130 
15 131 
15 134 
15 135 
15 137 
15 145 
15 146 
15 151 
15 152 
15 153 
15 154 
16 17 
16 18 
16 19 
16 20 
16 21 
16 22 
16 23 
16 24 
16 25 
16 26 
16 27 
16 28 
16 29 
16 30 
16 31 
16 32 
16 33 
16 34 
16 35 
16 36 
16 37 
16 38 
16 39 
16 40 
16 41 
16 42 
16 52 
16 63 
16 71 
16 78 
16 91 
16 97 
16 116 
16 121 
16 125 
16 131 
16 132 
16 133 
16 134 
17 18 
17 19 
17 20 
17 21 
17 22 
17 23 
17 24 
17 25 
17 26 
17 27 
17 28 
17 29 
17 30 
17 41 
17 43 
17 44 
17 45 
17 46 
17 47 
17 48 
17 49 
17 50 
17 51 
17 52 
17 53 
17 54 
17 66 
17 68 
17 82 
17 97 
17 104 
17 112 
17 120 
17 126 
17 146 
17 147 
17 150 
17 151 
18 19 
18 20 
18 21 
18 22 
18 23 
18 24 
18 25 
18 26 
18 27 
18 28 
18 29 
18 32 
18 42 
18 44 
18 48 
18 55 
18 66 
18 67 
18 68 
18 69 
18 70 
18 71 
18 72 
18 73 
18 74 
18 75 
18 76 
18 80 
18 93 
18 108 
18 122 
18 125 
18 139 
18 140 
18 148 
18 152 
18 154 
19 20 
19 21 
19 22 
19 23 
19 24 
19 25 
19 26 
19 27 
19 28 
19 29 
19 33 
19 34 
19 43 
19 45 
19 56 
19 67 
19 74 
19 77 
19 78 
19 79 
19 80 
19 81 
19 82 
19 83 
19 84 
19 85 
19 93 
19 106 
19 110 
19 114 
19 127 
19 132 
19 136 
19 143 
19 145 
19 146 
20 21 
20 22 
20 23 
20 24 
20 25 
20 26 
20 27 
20 28 
20 29 
20 33 
20 40 
20 46 
20 53 
20 57 
20 62 
20 68 
20 70 
20 84 
20 86 
20 87 
20 88 
20 89 
20 90 
20 91 
20 92 
20 93 
20 94 
20 98 
20 112 
20 119 
20 129 
20 133 
20 139 
20 153 
20 155 
21 22 
21 23 
21 24 
21 25 
21 26 
21 27 
21 28 
21 29 
21 34 
21 36 
21 47 
21 49 
21 58 
21 61 
21 69 
21 72 
21 77 
21 80 
21 86 
21 89 
21 95 
21 96 
21 97 
21 98 
21 99 
21 100 
21 101 
21 114 
21 115 
21 116 
21 117 
21 118 
21 119 
21 120 
22 23 
22 24 
22 25 
22 26 
22 27 
22 28 
22 29 
22 35 
22 42 
22 45 
22 47 
22 59 
22 64 
22 70 
22 74 
22 78 
22 87 
22 96 
22 102 
22 103 
22 104 
22 105 
22 106 
22 107 
22 108 
22 113 
22 118 
22 130 
22 134 
22 142 
22 144 
22 150 
22 155 
23 24 
23 25 
23 26 
23 27 
23 28 
23 29 
23 36 
23 40 
23 46 
23 48 
23 55 
23 60 
23 71 
23 79 
23 82 
23 88 
23 95 
23 99 
23 102 
23 105 
23 109 
23 110 
23 111 
23 112 
23 113 
23 117 
23 122 
23 128 
23 131 
23 135 
23 143 
23 144 
24 25 
24 26 
24 27 
24 28 
24 29 
24 37 
24 41 
24 50 
24 51 
24 60 
24 62 
24 73 
24 75 
24 79 
24 90 
24 91 
24 96 
24 101 
24 103 
24 107 
24 114 
24 119 
24 121 
24 122 
24 123 
24 124 
24 138 
24 140 
24 144 
24 145 
24 149 
25 26 
25 27 
25 28 
25 29 
25 31 
25 38 
25 51 
25 54 
25 59 
25 73 
25 77 
25 85 
25 90 
25 94 
25 101 
25 105 
25 109 
25 111 
25 115 
25 120 
25 125 
25 126 
25 127 
25 128 
25 129 
25 130 
25 136 
25 141 
25 152 
25 155 
26 27 
26 28 
26 29 
26 39 
26 50 
26 52 
26 61 
26 64 
26 67 
26 76 
26 83 
26 86 
26 87 
26 99 
26 102 
26 110 
26 116 
26 123 
26 126 
26 129 
26 135 
26 136 
26 137 
26 138 
26 139 
26 141 
26 148 
26 149 
26 150 
27 28 
27 29 
27 35 
27 39 
27 44 
27 53 
27 58 
27 65 
27 72 
27 81 
27 85 
27 88 
27 92 
27 98 
27 104 
27 117 
27 121 
27 123 
27 127 
27 130 
27 131 
27 137 
27 140 
27 141 
27 142 
27 145 
27 151 
27 154 
28 29 
28 30 
28 37 
28 56 
28 57 
28 75 
28 76 
28 81 
28 92 
28 95 
28 100 
28 106 
28 107 
28 111 
28 115 
28 118 
28 124 
28 128 
28 133 
28 134 
28 135 
28 137 
28 146 
28 147 
28 148 
28 152 
28 153 
29 32 
29 38 
29 49 
29 54 
29 63 
29 65 
29 69 
29 83 
29 84 
29 89 
29 94 
29 100 
29 103 
29 108 
29 109 
29 113 
29 124 
29 132 
29 138 
29 142 
29 143 
29 147 
29 149 
29 151 
29 153 
29 154 
30 31 
30 32 
30 33 
30 34 
30 35 
30 36 
30 37 
30 38 
30 39 
30 40 
30 41 
30 42 
30 43 
30 44 
30 45 
30 46 
30 47 
30 48 
30 49 
30 50 
30 51 
30 52 
30 53 
30 54 
30 56 
30 76 
30 92 
30 95 
30 107 
30 115 
30 124 
30 134 
30 135 
30 146 
30 152 
30 153 
31 32 
31 33 
31 34 
31 35 
31 36 
31 37 
31 38 
31 39 
31 40 
31 41 
31 42 
31 43 
31 54 
31 55 
31 56 
31 57 
31 58 
31 59 
31 60 
31 61 
31 62 
31 63 
31 64 
31 65 
31 66 
31 73 
31 85 
31 94 
31 101 
31 105 
31 111 
31 120 
31 136 
31 141 
31 152 
31 155 
32 33 
32 34 
32 35 
32 36 
32 37 
32 38 
32 39 
32 40 
32 41 
32 42 
32 44 
32 49 
32 55 
32 63 
32 67 
32 68 
32 69 
32 70 
32 71 
32 72 
32 73 
32 74 
32 75 
32 76 
32 84 
32 94 
32 100 
32 108 
32 109 
32 124 
32 142 
32 143 
32 149 
32 151 
33 34 
33 35 
33 36 
33 37 
33 38 
33 39 
33 40 
33 41 
33 42 
33 45 
33 46 
33 56 
33 57 
33 67 
33 68 
33 77 
33 78 
33 79 
33 80 
33 81 
33 82 
33 83 
33 84 
33 85 
33 86 
33 87 
33 88 
33 89 
33 90 
33 91 
33 92 
33 93 
33 94 
34 35 
34 36 
34 37 
34 38 
34 39 
34 40 
34 41 
34 42 
34 43 
34 47 
34 58 
34 69 
34 74 
34 77 
34 86 
34 93 
34 95 
34 96 
34 97 
34 98 
34 99 
34 100 
34 101 
34 106 
34 110 
34 114 
34 127 
34 132 
34 136 
34 143 
34 145 
34 146 
35 36 
35 37 
35 38 
35 39 
35 40 
35 41 
35 42 
35 47 
35 53 
35 58 
35 59 
35 70 
35 72 
35 78 
35 85 
35 87 
35 88 
35 102 
35 103 
35 104 
35 105 
35 106 
35 107 
35 108 
35 123 
35 130 
35 131 
35 137 
35 145 
35 151 
35 154 
36 37 
36 38 
36 39 
36 40 
36 41 
36 42 
36 48 
36 49 
36 60 
36 61 
36 71 
36 72 
36 79 
36 80 
36 88 
36 89 
36 95 
36 102 
36 109 
36 110 
36 111 
36 112 
36 113 
36 114 
36 115 
36 116 
36 117 
36 118 
36 119 
36 120 
37 38 
37 39 
37 40 
37 41 
37 42 
37 50 
37 57 
37 62 
37 73 
37 75 
37 79 
37 81 
37 90 
37 96 
37 100 
37 103 
37 106 
37 111 
37 114 
37 118 
37 121 
37 122 
37 123 
37 124 
37 128 
37 133 
37 137 
37 147 
37 148 
38 39 
38 40 
38 41 
38 42 
38 51 
38 54 
38 59 
38 65 
38 69 
38 77 
38 83 
38 89 
38 90 
38 103 
38 109 
38 113 
38 115 
38 125 
38 126 
38 127 
38 128 
38 129 
38 130 
38 132 
38 138 
38 147 
38 153 
38 154 
39 40 
39 41 
39 42 
39 44 
39 50 
39 64 
39 65 
39 67 
39 81 
39 86 
39 92 
39 98 
39 102 
39 104 
39 116 
39 117 
39 121 
39 126 
39 127 
39 135 
39 136 
39 137 
39 138 
39 139 
39 140 
39 141 
39 142 
40 41 
40 42 
40 46 
40 53 
40 55 
40 62 
40 70 
40 82 
40 84 
40 98 
40 99 
40 105 
40 112 
40 117 
40 119 
40 122 
40 128 
40 129 
40 131 
40 133 
40 135 
40 139 
40 143 
40 144 
40 153 
40 155 
41 42 
41 51 
41 60 
41 66 
41 68 
41 75 
41 82 
41 91 
41 97 
41 101 
41 104 
41 107 
41 112 
41 119 
41 120 
41 126 
41 138 
41 140 
41 144 
41 145 
41 146 
41 147 
41 149 
41 150 
41 151 
42 45 
42 48 
42 64 
42 66 
42 74 
42 80 
42 93 
42 96 
42 108 
42 113 
42 118 
42 122 
42 125 
42 130 
42 134 
42 139 
42 140 
42 142 
42 144 
42 148 
42 150 
42 152 
42 154 
42 155 
43 44 
43 45 
43 46 
43 47 
43 48 
43 49 
43 50 
43 51 
43 52 
43 53 
43 54 
43 55 
43 56 
43 57 
43 58 
43 59 
43 60 
43 61 
43 62 
43 63 
43 64 
43 65 
43 66 
43 74 
43 93 
43 106 
43 110 
43 114 
43 127 
43 132 
43 136 
43 143 
43 145 
43 146 
44 45 
44 46 
44 47 
44 48 
44 49 
44 50 
44 51 
44 52 
44 53 
44 54 
44 55 
44 65 
44 67 
44 68 
44 69 
44 70 
44 71 
44 72 
44 73 
44 74 
44 75 
44 76 
44 81 
44 92 
44 98 
44 104 
44 117 
44 121 
44 127 
44 140 
44 141 
44 142 
45 46 
45 47 
45 48 
45 49 
45 50 
45 51 
45 52 
45 53 
45 54 
45 56 
45 64 
45 67 
45 74 
45 77 
45 78 
45 79 
45 80 
45 81 
45 82 
45 83 
45 84 
45 85 
45 96 
45 113 
45 118 
45 130 
45 134 
45 142 
45 144 
45 150 
45 155 
46 47 
46 48 
46 49 
46 50 
46 51 
46 52 
46 53 
46 54 
46 55 
46 57 
46 68 
46 82 
46 86 
46 87 
46 88 
46 89 
46 90 
46 91 
46 92 
46 93 
46 94 
46 99 
46 105 
46 117 
46 122 
46 128 
46 131 
46 135 
46 143 
46 144 
47 48 
47 49 
47 50 
47 51 
47 52 
47 53 
47 54 
47 58 
47 59 
47 69 
47 70 
47 77 
47 78 
47 86 
47 87 
47 95 
47 96 
47 97 
47 98 
47 99 
47 100 
47 101 
47 102 
47 103 
47 104 
47 105 
47 106 
47 107 
47 108 
48 49 
48 50 
48 51 
48 52 
48 53 
48 54 
48 60 
48 66 
48 71 
48 79 
48 80 
48 88 
48 93 
48 95 
48 102 
48 108 
48 109 
48 110 
48 111 
48 112 
48 113 
48 122 
48 125 
48 139 
48 140 
48 148 
48 152 
48 154 
49 50 
49 51 
49 52 
49 53 
49 54 
49 61 
49 63 
49 72 
49 80 
49 84 
49 89 
49 94 
49 100 
49 108 
49 109 
49 114 
49 115 
49 116 
49 117 
49 118 
49 119 
49 120 
49 124 
49 142 
49 143 
49 149 
49 151 
50 51 
50 52 
50 53 
50 54 
50 62 
50 64 
50 67 
50 73 
50 79 
50 86 
50 90 
50 96 
50 102 
50 103 
50 114 
50 116 
50 121 
50 122 
50 123 
50 124 
50 126 
50 135 
50 136 
50 137 
50 138 
50 139 
51 52 
51 53 
51 54 
51 59 
51 60 
51 75 
51 77 
51 90 
51 91 
51 101 
51 107 
51 109 
51 115 
51 119 
51 125 
51 126 
51 127 
51 128 
51 129 
51 130 
51 138 
51 140 
51 144 
51 145 
51 149 
52 53 
52 54 
52 61 
52 63 
52 71 
52 76 
52 78 
52 83 
52 87 
52 91 
52 97 
52 99 
52 110 
52 116 
52 121 
52 123 
52 125 
52 129 
52 131 
52 132 
52 133 
52 134 
52 141 
52 148 
52 149 
52 150 
53 54 
53 58 
53 62 
53 70 
53 72 
53 84 
53 85 
53 88 
53 98 
53 112 
53 119 
53 123 
53 129 
53 130 
53 131 
53 133 
53 137 
53 139 
53 145 
53 151 
53 153 
53 154 
53 155 
54 65 
54 69 
54 73 
54 83 
54 85 
54 89 
54 94 
54 101 
54 103 
54 105 
54 111 
54 113 
54 120 
54 132 
54 136 
54 138 
54 141 
54 147 
54 152 
54 153 
54 154 
54 155 
55 56 
55 57 
55 58 
55 59 
55 60 
55 61 
55 62 
55 63 
55 64 
55 65 
55 66 
55 67 
55 68 
55 69 
55 70 
55 71 
55 72 
55 73 
55 74 
55 75 
55 76 
55 82 
55 99 
55 105 
55 117 
55 122 
55 128 
55 131 
55 135 
55 143 
55 144 
56 57 
56 58 
56 59 
56 60 
56 61 
56 62 
56 63 
56 64 
56 65 
56 66 
56 67 
56 76 
56 77 
56 78 
56 79 
56 80 
56 81 
56 82 
56 83 
56 84 
56 85 
56 92 
56 95 
56 107 
56 115 
56 124 
56 134 
56 135 
56 146 
56 152 
56 153 
57 58 
57 59 
57 60 
57 61 
57 62 
57 63 
57 64 
57 65 
57 66 
57 68 
57 75 
57 81 
57 86 
57 87 
57 88 
57 89 
57 90 
57 91 
57 92 
57 93 
57 94 
57 100 
57 106 
57 111 
57 118 
57 128 
57 133 
57 137 
57 147 
57 148 
58 59 
58 60 
58 61 
58 62 
58 63 
58 64 
58 65 
58 66 
58 69 
58 72 
58 77 
58 85 
58 86 
58 88 
58 95 
58 96 
58 97 
58 98 
58 99 
58 100 
58 101 
58 123 
58 130 
58 131 
58 137 
58 145 
58 151 
58 154 
59 60 
59 61 
59 62 
59 63 
59 64 
59 65 
59 66 
59 70 
59 77 
59 78 
59 87 
59 90 
59 102 
59 103 
59 104 
59 105 
59 106 
59 107 
59 108 
59 109 
59 115 
59 125 
59 126 
59 127 
59 128 
59 129 
59 130 
60 61 
60 62 
60 63 
60 64 
60 65 
60 66 
60 71 
60 75 
60 79 
60 88 
60 91 
60 95 
60 101 
60 102 
60 107 
60 109 
60 110 
60 111 
60 112 
60 113 
60 119 
60 138 
60 140 
60 144 
60 145 
60 149 
61 62 
61 63 
61 64 
61 65 
61 66 
61 72 
61 76 
61 80 
61 83 
61 87 
61 89 
61 99 
61 110 
61 114 
61 115 
61 116 
61 117 
61 118 
61 119 
61 120 
61 123 
61 129 
61 141 
61 148 
61 149 
61 150 
62 63 
62 64 
62 65 
62 66 
62 70 
62 73 
62 79 
62 84 
62 90 
62 96 
62 98 
62 103 
62 112 
62 114 
62 119 
62 121 
62 122 
62 123 
62 124 
62 129 
62 133 
62 139 
62 153 
62 155 
63 64 
63 65 
63 66 
63 71 
63 78 
63 84 
63 91 
63 94 
63 97 
63 100 
63 108 
63 109 
63 116 
63 121 
63 124 
63 125 
63 131 
63 132 
63 133 
63 134 
63 142 
63 143 
63 149 
63 151 
64 65 
64 66 
64 67 
64 74 
64 86 
64 96 
64 102 
64 113 
64 116 
64 118 
64 126 
64 130 
64 134 
64 135 
64 136 
64 137 
64 138 
64 139 
64 142 
64 144 
64 150 
64 155 
65 66 
65 69 
65 81 
65 83 
65 89 
65 92 
65 98 
65 103 
65 104 
65 113 
65 117 
65 121 
65 127 
65 132 
65 138 
65 140 
65 141 
65 142 
65 147 
65 153 
65 154 
66 68 
66 80 
66 82 
66 93 
66 97 
66 104 
66 108 
66 112 
66 120 
66 122 
66 125 
66 126 
66 139 
66 140 
66 146 
66 147 
66 148 
66 150 
66 151 
66 152 
66 154 
67 68 
67 69 
67 70 
67 71 
67 72 
67 73 
67 74 
67 75 
67 76 
67 77 
67 78 
67 79 
67 80 
67 81 
67 82 
67 83 
67 84 
67 85 
67 86 
67 102 
67 116 
67 126 
67 135 
67 136 
67 137 
67 138 
67 139 
68 69 
68 70 
68 71 
68 72 
68 73 
68 74 
68 75 
68 76 
68 82 
68 86 
68 87 
68 88 
68 89 
68 90 
68 91 
68 92 
68 93 
68 94 
68 97 
68 104 
68 112 
68 120 
68 126 
68 146 
68 147 
68 150 
68 151 
69 70 
69 71 
69 72 
69 73 
69 74 
69 75 
69 76 
69 77 
69 83 
69 86 
69 89 
69 95 
69 96 
69 97 
69 98 
69 99 
69 100 
69 101 
69 103 
69 113 
69 132 
69 138 
69 147 
69 153 
69 154 
70 71 
70 72 
70 73 
70 74 
70 75 
70 76 
70 78 
70 84 
70 87 
70 98 
70 102 
70 103 
70 104 
70 105 
70 106 
70 107 
70 108 
70 112 
70 119 
70 129 
70 133 
70 139 
70 153 
70 155 
71 72 
71 73 
71 74 
71 75 
71 76 
71 78 
71 79 
71 88 
71 91 
71 95 
71 97 
71 102 
71 109 
71 110 
71 111 
71 112 
71 113 
71 116 
71 121 
71 125 
71 131 
71 132 
71 133 
71 134 
72 73 
72 74 
72 75 
72 76 
72 80 
72 85 
72 88 
72 89 
72 114 
72 115 
72 116 
72 117 
72 118 
72 119 
72 120 
72 123 
72 130 
72 131 
72 137 
72 145 
72 151 
72 154 
73 74 
73 75 
73 76 
73 79 
73 85 
73 90 
73 94 
73 96 
73 101 
73 103 
73 105 
73 111 
73 114 
73 120 
73 121 
73 122 
73 123 
73 124 
73 136 
73 141 
73 152 
73 155 
74 75 
74 76 
74 93 
74 96 
74 106 
74 110 
74 113 
74 114 
74 118 
74 127 
74 130 
74 132 
74 134 
74 136 
74 142 
74 143 
74 144 
74 145 
74 146 
74 150 
74 155 
75 76 
75 81 
75 91 
75 100 
75 101 
75 106 
75 107 
75 111 
75 118 
75 119 
75 128 
75 133 
75 137 
75 138 
75 140 
75 144 
75 145 
75 147 
75 148 
75 149 
76 83 
76 87 
76 92 
76 95 
76 99 
76 107 
76 110 
76 115 
76 123 
76 124 
76 129 
76 134 
76 135 
76 141 
76 146 
76 148 
76 149 
76 150 
76 152 
76 153 
77 78 
77 79 
77 80 
77 81 
77 82 
77 83 
77 84 
77 85 
77 86 
77 90 
77 95 
77 96 
77 97 
77 98 
77 99 
77 100 
77 101 
77 109 
77 115 
77 125 
77 126 
77 127 
77 128 
77 129 
77 130 
78 79 
78 80 
78 81 
78 82 
78 83 
78 84 
78 85 
78 87 
78 91 
78 97 
78 102 
78 103 
78 104 
78 105 
78 106 
78 107 
78 108 
78 116 
78 121 
78 125 
78 131 
78 132 
78 133 
78 134 
79 80 
79 81 
79 82 
79 83 
79 84 
79 85 
79 88 
79 90 
79 95 
79 96 
79 102 
79 103 
79 109 
79 110 
79 111 
79 112 
79 113 
79 114 
79 121 
79 122 
79 123 
79 124 
80 81 
80 82 
80 83 
80 84 
80 85 
80 89 
80 93 
80 108 
80 114 
80 115 
80 116 
80 117 
80 118 
80 119 
80 120 
80 122 
80 125 
80 139 
80 140 
80 148 
80 152 
80 154 
81 82 
81 83 
81 84 
81 85 
81 92 
81 98 
81 100 
81 104 
81 106 
81 111 
81 117 
81 118 
81 121 
81 127 
81 128 
81 133 
81 137 
81 140 
81 141 
81 142 
81 147 
81 148 
82 83 
82 84 
82 85 
82 97 
82 99 
82 104 
82 105 
82 112 
82 117 
82 120 
82 122 
82 126 
82 128 
82 131 
82 135 
82 143 
82 144 
82 146 
82 147 
82 150 
82 151 
83 84 
83 85 
83 87 
83 89 
83 99 
83 103 
83 110 
83 113 
83 123 
83 129 
83 132 
83 138 
83 141 
83 147 
83 148 
83 149 
83 150 
83 153 
83 154 
84 85 
84 94 
84 98 
84 100 
84 108 
84 109 
84 112 
84 119 
84 124 
84 129 
84 133 
84 139 
84 142 
84 143 
84 149 
84 151 
84 153 
84 155 
85 88 
85 94 
85 101 
85 105 
85 111 
85 120 
85 123 
85 130 
85 131 
85 136 
85 137 
85 141 
85 145 
85 151 
85 152 
85 154 
85 155 
86 87 
86 88 
86 89 
86 90 
86 91 
86 92 
86 93 
86 94 
86 95 
86 96 
86 97 
86 98 
86 99 
86 100 
86 101 
86 102 
86 116 
86 126 
86 135 
86 136 
86 137 
86 138 
86 139 
87 88 
87 89 
87 90 
87 91 
87 92 
87 93 
87 94 
87 99 
87 102 
87 103 
87 104 
87 105 
87 106 
87 107 
87 108 
87 110 
87 123 
87 129 
87 141 
87 148 
87 149 
87 150 
88 89 
88 90 
88 91 
88 92 
88 93 
88 94 
88 95 
88 102 
88 109 
88 110 
88 111 
88 112 
88 113 
88 123 
88 130 
88 131 
88 137 
88 145 
88 151 
88 154 
89 90 
89 91 
89 92 
89 93 
89 94 
89 103 
89 113 
89 114 
89 115 
89 116 
89 117 
89 118 
89 119 
89 120 
89 132 
89 138 
89 147 
89 153 
89 154 
90 91 
90 92 
90 93 
90 94 
90 96 
90 103 
90 109 
90 114 
90 115 
90 121 
90 122 
90 123 
90 124 
90 125 
90 126 
90 127 
90 128 
90 129 
90 130 
91 92 
91 93 
91 94 
91 97 
91 101 
91 107 
91 116 
91 119 
91 121 
91 125 
91 131 
91 132 
91 133 
91 134 
91 138 
91 140 
91 144 
91 145 
91 149 
92 93 
92 94 
92 95 
92 98 
92 104 
92 107 
92 115 
92 117 
92 121 
92 124 
92 127 
92 134 
92 135 
92 140 
92 141 
92 142 
92 146 
92 152 
92 153 
93 94 
93 106 
93 108 
93 110 
93 114 
93 122 
93 125 
93 127 
93 132 
93 136 
93 139 
93 140 
93 143 
93 145 
93 146 
93 148 
93 152 
93 154 
94 100 
94 101 
94 105 
94 108 
94 109 
94 111 
94 120 
94 124 
94 136 
94 141 
94 142 
94 143 
94 149 
94 151 
94 152 
94 155 
95 96 
95 97 
95 98 
95 99 
95 100 
95 101 
95 102 
95 107 
95 109 
95 110 
95 111 
95 112 
95 113 
95 115 
95 124 
95 134 
95 135 
95 146 
95 152 
95 153 
96 97 
96 98 
96 99 
96 100 
96 101 
96 103 
96 113 
96 114 
96 118 
96 121 
96 122 
96 123 
96 124 
96 130 
96 134 
96 142 
96 144 
96 150 
96 155 
97 98 
97 99 
97 100 
97 101 
97 104 
97 112 
97 116 
97 120 
97 121 
97 125 
97 126 
97 131 
97 132 
97 133 
97 134 
97 146 
97 147 
97 150 
97 151 
98 99 
98 100 
98 101 
98 104 
98 112 
98 117 
98 119 
98 121 
98 127 
98 129 
98 133 
98 139 
98 140 
98 141 
98 142 
98 153 
98 155 
99 100 
99 101 
99 105 
99 110 
99 117 
99 122 
99 123 
99 128 
99 129 
99 131 
99 135 
99 141 
99 143 
99 144 
99 148 
99 149 
99 150 
100 101 
100 106 
100 108 
100 109 
100 111 
100 118 
100 124 
100 128 
100 133 
100 137 
100 142 
100 143 
100 147 
100 148 
100 149 
100 151 
101 105 
101 107 
101 111 
101 119 
101 120 
101 136 
101 138 
101 140 
101 141 
101 144 
101 145 
101 149 
101 152 
101 155 
102 103 
102 104 
102 105 
102 106 
102 107 
102 108 
102 109 
102 110 
102 111 
102 112 
102 113 
102 116 
102 126 
102 135 
102 136 
102 137 
102 138 
102 139 
103 104 
103 105 
103 106 
103 107 
103 108 
103 113 
103 114 
103 121 
103 122 
103 123 
103 124 
103 132 
103 138 
103 147 
103 153 
103 154 
104 105 
104 106 
104 107 
104 108 
104 112 
104 117 
104 120 
104 121 
104 126 
104 127 
104 140 
104 141 
104 142 
104 146 
104 147 
104 150 
104 151 
105 106 
105 107 
105 108 
105 111 
105 117 
105 120 
105 122 
105 128 
105 131 
105 135 
105 136 
105 141 
105 143 
105 144 
105 152 
105 155 
106 107 
106 108 
106 110 
106 111 
106 114 
106 118 
106 127 
106 128 
106 132 
106 133 
106 136 
106 137 
106 143 
106 145 
106 146 
106 147 
106 148 
107 108 
107 115 
107 119 
107 124 
107 134 
107 135 
107 138 
107 140 
107 144 
107 145 
107 146 
107 149 
107 152 
107 153 
108 109 
108 122 
108 124 
108 125 
108 139 
108 140 
108 142 
108 143 
108 148 
108 149 
108 151 
108 152 
108 154 
109 110 
109 111 
109 112 
109 113 
109 115 
109 124 
109 125 
109 126 
109 127 
109 128 
109 129 
109 130 
109 142 
109 143 
109 149 
109 151 
110 111 
110 112 
110 113 
110 114 
110 123 
110 127 
110 129 
110 132 
110 136 
110 141 
110 143 
110 145 
110 146 
110 148 
110 149 
110 150 
111 112 
111 113 
111 118 
111 120 
111 128 
111 133 
111 136 
111 137 
111 141 
111 147 
111 148 
111 152 
111 155 
112 113 
112 119 
112 120 
112 126 
112 129 
112 133 
112 139 
112 146 
112 147 
112 150 
112 151 
112 153 
112 155 
113 118 
113 130 
113 132 
113 134 
113 138 
113 142 
113 144 
113 147 
113 150 
113 153 
113 154 
113 155 
114 115 
114 116 
114 117 
114 118 
114 119 
114 120 
114 121 
114 122 
114 123 
114 124 
114 127 
114 132 
114 136 
114 143 
114 145 
114 146 
115 116 
115 117 
115 118 
115 119 
115 120 
115 124 
115 125 
115 126 
115 127 
115 128 
115 129 
115 130 
115 134 
115 135 
115 146 
115 152 
115 153 
116 117 
116 118 
116 119 
116 120 
116 121 
116 125 
116 126 
116 131 
116 132 
116 133 
116 134 
116 135 
116 136 
116 137 
116 138 
116 139 
117 118 
117 119 
117 120 
117 121 
117 122 
117 127 
117 128 
117 131 
117 135 
117 140 
117 141 
117 142 
117 143 
117 144 
118 119 
118 120 
118 128 
118 130 
118 133 
118 134 
118 137 
118 142 
118 144 
118 147 
118 148 
118 150 
118 155 
119 120 
119 129 
119 133 
119 138 
119 139 
119 140 
119 144 
119 145 
119 149 
119 153 
119 155 
120 126 
120 136 
120 141 
120 146 
120 147 
120 150 
120 151 
120 152 
120 155 
121 122 
121 123 
121 124 
121 125 
121 127 
121 131 
121 132 
121 133 
121 134 
121 140 
121 141 
121 142 
122 123 
122 124 
122 125 
122 128 
122 131 
122 135 
122 139 
122 140 
122 143 
122 144 
122 148 
122 152 
122 154 
123 124 
123 129 
123 130 
123 131 
123 137 
123 141 
123 145 
123 148 
123 149 
123 150 
123 151 
123 154 
124 134 
124 135 
124 142 
124 143 
124 146 
124 149 
124 151 
124 152 
124 153 
125 126 
125 127 
125 128 
125 129 
125 130 
125 131 
125 132 
125 133 
125 134 
125 139 
125 140 
125 148 
125 152 
125 154 
126 127 
126 128 
126 129 
126 130 
126 135 
126 136 
126 137 
126 138 
126 139 
126 146 
126 147 
126 150 
126 151 
127 128 
127 129 
127 130 
127 132 
127 136 
127 140 
127 141 
127 142 
127 143 
127 145 
127 146 
128 129 
128 130 
128 131 
128 133 
128 135 
128 137 
128 143 
128 144 
128 147 
128 148 
129 130 
129 133 
129 139 
129 141 
129 148 
129 149 
129 150 
129 153 
129 155 
130 131 
130 134 
130 137 
130 142 
130 144 
130 145 
130 150 
130 151 
130 154 
130 155 
131 132 
131 133 
131 134 
131 135 
131 137 
131 143 
131 144 
131 145 
131 151 
131 154 
132 133 
132 134 
132 136 
132 138 
132 143 
132 145 
132 146 
132 147 
132 153 
132 154 
133 134 
133 137 
133 139 
133 147 
133 148 
133 153 
133 155 
134 135 
134 142 
134 144 
134 146 
134 150 
134 152 
134 153 
134 155 
135 136 
135 137 
135 138 
135 139 
135 143 
135 144 
135 146 
135 152 
135 153 
136 137 
136 138 
136 139 
136 141 
136 143 
136 145 
136 146 
136 152 
136 155 
137 138 
137 139 
137 145 
137 147 
137 148 
137 151 
137 154 
138 139 
138 140 
138 144 
138 145 
138 147 
138 149 
138 153 
138 154 
139 140 
139 148 
139 152 
139 153 
139 154 
139 155 
140 141 
140 142 
140 144 
140 145 
140 148 
140 149 
140 152 
140 154 
141 142 
141 148 
141 149 
141 150 
141 152 
141 155 
142 143 
142 144 
142 149 
142 150 
142 151 
142 155 
143 144 
143 145 
143 146 
143 149 
143 151 
144 145 
144 149 
144 150 
144 155 
145 146 
145 149 
145 151 
145 154 
146 147 
146 150 
146 151 
146 152 
146 153 
147 148 
147 150 
147 151 
147 153 
147 154 
148 149 
148 150 
148 152 
148 154 
149 150 
149 151 
150 151 
150 155 
151 154 
152 153 
152 154 
152 155 
153 154 
153 155 
